letting n =  10
letting blocks =  [[1, 1], [1, 3], [1, 5], [1, 6], [1, 9], [1, 10], [2, 2], [2, 3], [2, 5], [2, 7], [2, 8], [2, 10], [3, 2], [3, 6], [3, 7], [3, 9], [4, 2], [4, 3], [4, 4], [4, 5], [4, 8], [4, 9], [5, 3], [5, 4], [5, 5], [5, 6], [5, 8], [6, 3], [6, 4], [6, 6], [6, 9], [7, 2], [7, 3], [7, 4], [7, 5], [7, 7], [7, 8], [8, 4], [8, 6], [8, 7], [8, 8], [8, 9], [8, 10], [9, 1], [9, 2], [9, 5], [9, 7], [9, 8], [9, 10], [10, 1], [10, 2], [10, 4], [10, 7], [10, 9]]
